************************************************************************
file with basedata            : md352_.bas
initial value random generator: 692915145
************************************************************************
projects                      :  1
jobs (incl. supersource/sink ):  22
horizon                       :  151
RESOURCES
  - renewable                 :  2   R
  - nonrenewable              :  2   N
  - doubly constrained        :  0   D
************************************************************************
PROJECT INFORMATION:
pronr.  #jobs rel.date duedate tardcost  MPM-Time
    1     20      0       26        7       26
************************************************************************
PRECEDENCE RELATIONS:
jobnr.    #modes  #successors   successors
   1        1          3           2   3   4
   2        3          3           5   7   8
   3        3          3           6   8  19
   4        3          2          13  17
   5        3          3           9  16  21
   6        3          3          12  16  18
   7        3          2          10  11
   8        3          3          10  11  16
   9        3          1          17
  10        3          2          12  18
  11        3          3          13  14  15
  12        3          3          13  14  15
  13        3          1          21
  14        3          1          20
  15        3          1          20
  16        3          1          20
  17        3          1          19
  18        3          1          21
  19        3          1          22
  20        3          1          22
  21        3          1          22
  22        1          0        
************************************************************************
REQUESTS/DURATIONS:
jobnr. mode duration  R 1  R 2  N 1  N 2
------------------------------------------------------------------------
  1      1     0       0    0    0    0
  2      1     6       6    9    6    0
         2     6       5    9    0    7
         3     8       3    8    0    3
  3      1     3       9    9    0   10
         2     8       8    8    8    0
         3    10       5    7    0   10
  4      1     3       7    8    0    9
         2     8       7    6    0    8
         3     9       2    5    5    0
  5      1     6       5   10    0    6
         2     6       4    9    3    0
         3     8       2    8    0    9
  6      1     4       4    5    3    0
         2     7       4    4    0    9
         3     7       4    4    3    0
  7      1     5       3    9    0    9
         2     6       2    7    8    0
         3     7       2    6    4    0
  8      1     2       8    9    5    0
         2     2       8    8    6    0
         3     4       5    8    0    2
  9      1     1       2    9    0    6
         2     4       2    7    2    0
         3     6       1    5    0    6
 10      1     1       6    8    5    0
         2     3       5    7    0    9
         3    10       3    5    4    0
 11      1     2       9    8    8    0
         2     7       5    7    0    3
         3     7       6    8    0    1
 12      1     2       4    4    7    0
         2     3       2    2    0    2
         3     5       1    1    6    0
 13      1     2       9    7    2    0
         2     2       9    4    0    5
         3     3       8    1    0    4
 14      1    10       8    5    8    0
         2    10       8    8    0    5
         3    10       9    6    7    0
 15      1     7       6    7    0    7
         2     8       5    6    0    4
         3     9       5    5    2    0
 16      1     2      10    9    0    5
         2     4      10    6    0    4
         3     7       9    5    0    3
 17      1     1       6    8    0    5
         2     2       5    5    0    3
         3     7       4    3    0    3
 18      1     2      10    6    0    5
         2     4      10    4    0    4
         3     9       9    4    6    0
 19      1     2       7    9    3    0
         2     2       6    9    0    8
         3     9       5    9    0    5
 20      1     2       9    5    4    0
         2     5       8    3    0    8
         3     7       8    2    0    6
 21      1     2      10   10    0    4
         2     7       9    6    0    4
         3     9       8    2    7    0
 22      1     0       0    0    0    0
************************************************************************
RESOURCEAVAILABILITIES:
  R 1  R 2  N 1  N 2
   35   36   93  127
************************************************************************
MAXIMAL LAGS:
from  to  type  delay
    1   22   ES      0
    1    2   ES      0
    2   22   ES      0
    1    3   ES      0
    3   22   ES      0
    1    4   ES      0
    4   22   ES      0
    1    5   ES      0
    5   22   ES      0
    1    6   ES      0
    6   22   ES      0
    1    7   ES      0
    7   22   ES      0
    1    8   ES      0
    8   22   ES      0
    1    9   ES      0
    9   22   ES      0
    1   10   ES      0
   10   22   ES      0
    1   11   ES      0
   11   22   ES      0
    1   12   ES      0
   12   22   ES      0
    1   13   ES      0
   13   22   ES      0
    1   14   ES      0
   14   22   ES      0
    1   15   ES      0
   15   22   ES      0
    1   16   ES      0
   16   22   ES      0
    1   17   ES      0
   17   22   ES      0
    1   18   ES      0
   18   22   ES      0
    1   19   ES      0
   19   22   ES      0
    1   20   ES      0
   20   22   ES      0
    1   21   ES      0
   21   22   ES      0
    1   22   ES      0
    2    5   SS     -8
    2    5   SE    -12
    2    5   ES     -1
    2    5   EE     -2
    2    7   SS    -12
    2    7   SE     -6
    2    7   ES     12
    2    7   EE     -6
    2    8   SS    -12
    2    8   SE    -11
    2    8   ES    -12
    2    8   EE    -12
    3    6   SS      5
    3    6   SE      4
    6    3   SE      0
    3    6   ES      0
    3    6   EE     -5
    3    8   SS     -3
    3    8   SE     11
    3    8   ES     10
    3    8   EE      0
    3   19   SS      2
    3   19   SE     -5
    3   19   ES      6
    3   19   EE     -9
    4   13   SS      7
    4   13   SE    -12
    4   13   ES    -12
    4   13   EE      4
    4   17   SS      4
    4   17   SE      6
    4   17   ES     12
    4   17   EE     12
    5    9   SS      6
    5    9   SE    -10
    5    9   ES     -9
    5    9   EE     -4
    5   16   SS     -9
    5   16   SE      0
    5   16   ES    -12
    5   16   EE    -12
    5   21   SS      6
    5   21   SE    -10
    5   21   ES      0
    5   21   EE      6
    6   12   SS     12
    6   12   SE     11
    6   12   ES      8
    6   12   EE     -8
    6   16   SS     -5
    6   16   SE     -8
    6   16   ES      9
    6   16   EE      3
    6   18   SS     -6
    6   18   SE      2
    6   18   ES     11
    6   18   EE      6
    7   10   SS      9
    7   10   SE      5
    7   10   ES     12
    7   10   EE      6
    7   11   SS     11
    7   11   SE      2
    7   11   ES     11
    7   11   EE     10
    8   10   SS      7
    8   10   SE    -11
    8   10   ES      0
    8   10   EE    -12
    8   11   SS      5
    8   11   SE     11
    8   11   ES     -2
    8   11   EE     -3
    8   16   SS      5
    8   16   SE    -10
    8   16   ES      5
    8   16   EE      1
    9   17   SS      3
    9   17   SE     -4
    9   17   ES      0
    9   17   EE     -5
   10   12   SS    -11
   10   12   SE    -11
   10   12   ES    -12
   10   12   EE      7
   10   18   SS      6
   10   18   SE      4
   10   18   ES     -4
   10   18   EE      9
   11   13   SS     -5
   11   13   SE     -5
   11   13   ES      1
   11   13   EE     -9
   11   14   SS     -9
   11   14   SE     11
   11   14   ES     -5
   11   14   EE      2
   11   15   SS    -10
   11   15   SE     -9
   11   15   ES      4
   11   15   EE    -10
   12   13   SS     -2
   12   13   SE    -10
   12   13   ES      9
   12   13   EE      7
   12   14   SS      5
   12   14   SE      8
   12   14   ES     -1
   12   14   EE     10
   12   15   SS     -4
   12   15   SE     -2
   12   15   ES      4
   12   15   EE     -8
   13   21   SS     12
   13   21   SE      6
   13   21   ES     -3
   13   21   EE     -8
   14   20   SS    -12
   14   20   SE     -6
   14   20   ES      8
   14   20   EE     -4
   15   20   SS      9
   15   20   SE    -12
   15   20   ES    -10
   15   20   EE     -1
   16   20   SS     -6
   16   20   SE     -2
   16   20   ES     12
   16   20   EE     -5
   17   19   SS     -4
   17   19   SE      1
   17   19   ES      1
   17   19   EE    -12
   18   21   SS      2
   18   21   SE     -2
   18   21   ES      0
   18   21   EE      6
************************************************************************
